(set-info :smt-lib-version 2.6)
(set-logic QF_NIA)
(set-info :source |
Generated by: Cristina Borralleras, Daniel Larraz, Albert Oliveras, Enric Rodriguez-Carbonell, Albert Rubio
Generated on: 2017-04-27
Generator: VeryMax
Application: Termination proving
Target solver: barcelogic
|)
(set-info :license "https://creativecommons.org/licenses/by/4.0/")
(set-info :category "industrial")
(set-info :status sat)
(declare-fun Nl4arg11 () Int)
(declare-fun Nl4arg21 () Int)
(declare-fun Nl4arg31 () Int)
(declare-fun Nl4arg41 () Int)
(declare-fun Nl4arg51 () Int)
(declare-fun Nl4arg61 () Int)
(declare-fun Nl4arg71 () Int)
(declare-fun Nl4arg81 () Int)
(declare-fun Nl4arg91 () Int)
(declare-fun Nl4arg101 () Int)
(declare-fun Nl4arg111 () Int)
(declare-fun Nl4arg121 () Int)
(declare-fun Nl4arg131 () Int)
(declare-fun Nl4arg141 () Int)
(declare-fun Nl4arg12 () Int)
(declare-fun Nl4arg22 () Int)
(declare-fun Nl4arg32 () Int)
(declare-fun Nl4arg42 () Int)
(declare-fun Nl4arg52 () Int)
(declare-fun Nl4arg62 () Int)
(declare-fun Nl4arg72 () Int)
(declare-fun Nl4arg82 () Int)
(declare-fun Nl4arg92 () Int)
(declare-fun Nl4arg102 () Int)
(declare-fun Nl4arg112 () Int)
(declare-fun Nl4arg122 () Int)
(declare-fun Nl4arg132 () Int)
(declare-fun Nl4arg142 () Int)
(declare-fun Nl4arg13 () Int)
(declare-fun Nl4arg23 () Int)
(declare-fun Nl4arg33 () Int)
(declare-fun Nl4arg43 () Int)
(declare-fun Nl4arg53 () Int)
(declare-fun Nl4arg63 () Int)
(declare-fun Nl4arg73 () Int)
(declare-fun Nl4arg83 () Int)
(declare-fun Nl4arg93 () Int)
(declare-fun Nl4arg103 () Int)
(declare-fun Nl4arg113 () Int)
(declare-fun Nl4arg123 () Int)
(declare-fun Nl4arg133 () Int)
(declare-fun Nl4arg143 () Int)
(declare-fun lam0n0 () Int)
(declare-fun lam0n1 () Int)
(declare-fun lam0n2 () Int)
(declare-fun lam0n3 () Int)
(declare-fun lam0n4 () Int)
(declare-fun lam0n5 () Int)
(declare-fun lam0n6 () Int)
(declare-fun lam0n7 () Int)
(declare-fun lam0n8 () Int)
(declare-fun lam0n9 () Int)
(declare-fun lam0n10 () Int)
(declare-fun lam0n11 () Int)
(declare-fun lam0n12 () Int)
(declare-fun lam0n13 () Int)
(declare-fun lam0n14 () Int)
(declare-fun lam0n15 () Int)
(declare-fun lam0n16 () Int)
(declare-fun lam0n17 () Int)
(declare-fun Nl4CT1 () Int)
(declare-fun Nl4CT2 () Int)
(declare-fun Nl4CT3 () Int)
(declare-fun lam1n0 () Int)
(declare-fun lam1n1 () Int)
(declare-fun lam1n2 () Int)
(declare-fun lam1n3 () Int)
(declare-fun lam1n4 () Int)
(declare-fun lam1n5 () Int)
(declare-fun lam1n6 () Int)
(declare-fun lam1n7 () Int)
(declare-fun lam1n8 () Int)
(declare-fun lam1n9 () Int)
(declare-fun lam1n10 () Int)
(declare-fun lam1n11 () Int)
(declare-fun lam1n12 () Int)
(declare-fun lam1n13 () Int)
(declare-fun lam1n14 () Int)
(declare-fun lam1n15 () Int)
(declare-fun lam1n16 () Int)
(declare-fun lam1n17 () Int)
(declare-fun lam2n0 () Int)
(declare-fun lam2n1 () Int)
(declare-fun lam2n2 () Int)
(declare-fun lam2n3 () Int)
(declare-fun lam2n4 () Int)
(declare-fun lam2n5 () Int)
(declare-fun lam2n6 () Int)
(declare-fun lam2n7 () Int)
(declare-fun lam2n8 () Int)
(declare-fun lam2n9 () Int)
(declare-fun lam2n10 () Int)
(declare-fun lam2n11 () Int)
(declare-fun lam2n12 () Int)
(declare-fun lam2n13 () Int)
(declare-fun lam2n14 () Int)
(declare-fun lam2n15 () Int)
(declare-fun lam2n16 () Int)
(declare-fun lam2n17 () Int)
(declare-fun lam3n0 () Int)
(declare-fun lam3n1 () Int)
(declare-fun lam3n2 () Int)
(declare-fun lam3n3 () Int)
(declare-fun lam3n4 () Int)
(declare-fun lam3n5 () Int)
(declare-fun lam3n6 () Int)
(declare-fun lam3n7 () Int)
(declare-fun lam3n8 () Int)
(declare-fun lam3n9 () Int)
(declare-fun lam3n10 () Int)
(declare-fun lam3n11 () Int)
(declare-fun lam3n12 () Int)
(declare-fun lam3n13 () Int)
(declare-fun lam3n14 () Int)
(declare-fun lam3n15 () Int)
(declare-fun lam3n16 () Int)
(declare-fun lam3n17 () Int)
(declare-fun lam4n0 () Int)
(declare-fun lam4n1 () Int)
(declare-fun lam4n2 () Int)
(declare-fun lam4n3 () Int)
(declare-fun lam4n4 () Int)
(declare-fun lam4n5 () Int)
(declare-fun lam4n6 () Int)
(declare-fun lam4n7 () Int)
(declare-fun lam4n8 () Int)
(declare-fun lam5n0 () Int)
(declare-fun lam5n1 () Int)
(declare-fun lam5n2 () Int)
(declare-fun lam5n3 () Int)
(declare-fun lam5n4 () Int)
(declare-fun lam5n5 () Int)
(declare-fun lam5n6 () Int)
(declare-fun lam5n7 () Int)
(declare-fun lam5n8 () Int)
(declare-fun lam6n0 () Int)
(declare-fun lam6n1 () Int)
(declare-fun lam6n2 () Int)
(declare-fun lam6n3 () Int)
(declare-fun lam6n4 () Int)
(declare-fun lam6n5 () Int)
(declare-fun lam6n6 () Int)
(declare-fun lam6n7 () Int)
(declare-fun lam6n8 () Int)
(declare-fun undef402 () Int)
(declare-fun undef31 () Int)
(declare-fun undef191 () Int)
(declare-fun undef202 () Int)
(declare-fun undef203 () Int)
(declare-fun undef403 () Int)
(declare-fun undef188 () Int)
(declare-fun undef30 () Int)
(declare-fun undef37 () Int)
(declare-fun undef38 () Int)
(declare-fun undef39 () Int)
(declare-fun undef40 () Int)
(declare-fun undef41 () Int)
(declare-fun undef42 () Int)
(declare-fun undef43 () Int)
(declare-fun lam7n0 () Int)
(declare-fun lam7n1 () Int)
(declare-fun lam7n2 () Int)
(declare-fun lam7n3 () Int)
(declare-fun lam7n4 () Int)
(declare-fun lam7n5 () Int)
(declare-fun lam7n6 () Int)
(declare-fun lam7n7 () Int)
(declare-fun lam7n8 () Int)
(declare-fun lam7n9 () Int)
(declare-fun lam7n10 () Int)
(declare-fun lam7n11 () Int)
(declare-fun lam7n12 () Int)
(declare-fun lam7n13 () Int)
(declare-fun lam7n14 () Int)
(declare-fun lam7n15 () Int)
(declare-fun lam7n16 () Int)
(declare-fun lam7n17 () Int)
(declare-fun lam7n18 () Int)
(declare-fun lam7n19 () Int)
(declare-fun lam7n20 () Int)
(declare-fun lam7n21 () Int)
(declare-fun lam7n22 () Int)
(declare-fun lam7n23 () Int)
(declare-fun lam7n24 () Int)
(declare-fun lam7n25 () Int)
(declare-fun lam7n26 () Int)
(declare-fun lam7n27 () Int)
(declare-fun lam8n0 () Int)
(declare-fun lam8n1 () Int)
(declare-fun lam8n2 () Int)
(declare-fun lam8n3 () Int)
(declare-fun lam8n4 () Int)
(declare-fun lam8n5 () Int)
(declare-fun lam8n6 () Int)
(declare-fun lam8n7 () Int)
(declare-fun lam8n8 () Int)
(declare-fun lam8n9 () Int)
(declare-fun lam8n10 () Int)
(declare-fun lam8n11 () Int)
(declare-fun lam8n12 () Int)
(declare-fun lam8n13 () Int)
(declare-fun lam8n14 () Int)
(declare-fun lam8n15 () Int)
(declare-fun lam8n16 () Int)
(declare-fun lam8n17 () Int)
(declare-fun lam8n18 () Int)
(declare-fun lam8n19 () Int)
(declare-fun lam8n20 () Int)
(declare-fun lam8n21 () Int)
(declare-fun lam8n22 () Int)
(declare-fun lam8n23 () Int)
(declare-fun lam8n24 () Int)
(declare-fun lam8n25 () Int)
(declare-fun lam8n26 () Int)
(declare-fun lam8n27 () Int)
(assert ( and ( <= ( - 2 ) Nl4arg11 ) ( <= Nl4arg11 2 ) ( <= ( - 2 ) Nl4arg21 ) ( <= Nl4arg21 2 ) ( <= ( - 2 ) Nl4arg31 ) ( <= Nl4arg31 2 ) ( <= ( - 2 ) Nl4arg41 ) ( <= Nl4arg41 2 ) ( <= ( - 2 ) Nl4arg51 ) ( <= Nl4arg51 2 ) ( <= ( - 2 ) Nl4arg61 ) ( <= Nl4arg61 2 ) ( <= ( - 2 ) Nl4arg71 ) ( <= Nl4arg71 2 ) ( <= ( - 2 ) Nl4arg81 ) ( <= Nl4arg81 2 ) ( <= ( - 2 ) Nl4arg91 ) ( <= Nl4arg91 2 ) ( <= ( - 2 ) Nl4arg101 ) ( <= Nl4arg101 2 ) ( <= ( - 2 ) Nl4arg111 ) ( <= Nl4arg111 2 ) ( <= ( - 2 ) Nl4arg121 ) ( <= Nl4arg121 2 ) ( <= ( - 2 ) Nl4arg131 ) ( <= Nl4arg131 2 ) ( <= ( - 2 ) Nl4arg141 ) ( <= Nl4arg141 2 ) ( <= ( - 2 ) Nl4arg12 ) ( <= Nl4arg12 2 ) ( <= ( - 2 ) Nl4arg22 ) ( <= Nl4arg22 2 ) ( <= ( - 2 ) Nl4arg32 ) ( <= Nl4arg32 2 ) ( <= ( - 2 ) Nl4arg42 ) ( <= Nl4arg42 2 ) ( <= ( - 2 ) Nl4arg52 ) ( <= Nl4arg52 2 ) ( <= ( - 2 ) Nl4arg62 ) ( <= Nl4arg62 2 ) ( <= ( - 2 ) Nl4arg72 ) ( <= Nl4arg72 2 ) ( <= ( - 2 ) Nl4arg82 ) ( <= Nl4arg82 2 ) ( <= ( - 2 ) Nl4arg92 ) ( <= Nl4arg92 2 ) ( <= ( - 2 ) Nl4arg102 ) ( <= Nl4arg102 2 ) ( <= ( - 2 ) Nl4arg112 ) ( <= Nl4arg112 2 ) ( <= ( - 2 ) Nl4arg122 ) ( <= Nl4arg122 2 ) ( <= ( - 2 ) Nl4arg132 ) ( <= Nl4arg132 2 ) ( <= ( - 2 ) Nl4arg142 ) ( <= Nl4arg142 2 ) ( <= ( - 2 ) Nl4arg13 ) ( <= Nl4arg13 2 ) ( <= ( - 2 ) Nl4arg23 ) ( <= Nl4arg23 2 ) ( <= ( - 2 ) Nl4arg33 ) ( <= Nl4arg33 2 ) ( <= ( - 2 ) Nl4arg43 ) ( <= Nl4arg43 2 ) ( <= ( - 2 ) Nl4arg53 ) ( <= Nl4arg53 2 ) ( <= ( - 2 ) Nl4arg63 ) ( <= Nl4arg63 2 ) ( <= ( - 2 ) Nl4arg73 ) ( <= Nl4arg73 2 ) ( <= ( - 2 ) Nl4arg83 ) ( <= Nl4arg83 2 ) ( <= ( - 2 ) Nl4arg93 ) ( <= Nl4arg93 2 ) ( <= ( - 2 ) Nl4arg103 ) ( <= Nl4arg103 2 ) ( <= ( - 2 ) Nl4arg113 ) ( <= Nl4arg113 2 ) ( <= ( - 2 ) Nl4arg123 ) ( <= Nl4arg123 2 ) ( <= ( - 2 ) Nl4arg133 ) ( <= Nl4arg133 2 ) ( <= ( - 2 ) Nl4arg143 ) ( <= Nl4arg143 2 ) ))
(assert ( or ( and ( >= lam0n0 0 ) ( >= lam0n1 0 ) ( >= lam0n2 0 ) ( >= lam0n3 0 ) ( >= lam0n4 0 ) ( >= lam0n5 0 ) ( >= lam0n6 0 ) ( >= lam0n7 0 ) ( >= lam0n8 0 ) ( >= lam0n9 0 ) ( >= lam0n10 0 ) ( >= lam0n11 0 ) ( >= lam0n12 0 ) ( >= lam0n13 0 ) ( >= lam0n14 0 ) ( >= lam0n15 0 ) ( >= lam0n16 0 ) ( >= lam0n17 0 ) ( > ( + ( * 1 lam0n0 ) ( * 3 lam0n7 ) ( * 3 lam0n8 ) ( * 2 lam0n9 ) ( * 2 lam0n10 ) ( * 2 lam0n11 ) ( * 4 lam0n12 ) ( * 4 lam0n13 ) ( * 4 lam0n14 ) ( * Nl4CT1 lam0n15 ) ( * Nl4CT2 lam0n16 ) ( * Nl4CT3 lam0n17 ) ( - 1 ) ) 0 ) ( = ( + ( * ( - 1 ) lam0n7 ) ( * ( - 1 ) lam0n8 ) ( * ( - 1 ) lam0n12 ) ( * Nl4arg11 lam0n15 ) ( * Nl4arg12 lam0n16 ) ( * Nl4arg13 lam0n17 ) ) 0 ) ( = ( + ( * ( - 1 ) lam0n0 ) ( * Nl4arg21 lam0n15 ) ( * Nl4arg22 lam0n16 ) ( * Nl4arg23 lam0n17 ) ) 0 ) ( = ( + ( * ( - 1 ) lam0n9 ) ( * ( - 1 ) lam0n10 ) ( * Nl4arg31 lam0n15 ) ( * Nl4arg32 lam0n16 ) ( * Nl4arg33 lam0n17 ) ) 0 ) ( = ( + ( * ( - 1 ) lam0n1 ) ( * 1 lam0n10 ) ( * Nl4arg41 lam0n15 ) ( * Nl4arg42 lam0n16 ) ( * Nl4arg43 lam0n17 ) ) 0 ) ( = ( + ( * ( - 1 ) lam0n11 ) ( * Nl4arg51 lam0n15 ) ( * Nl4arg52 lam0n16 ) ( * Nl4arg53 lam0n17 ) ) 0 ) ( = ( + ( * 1 lam0n7 ) ( * Nl4arg61 lam0n15 ) ( * Nl4arg62 lam0n16 ) ( * Nl4arg63 lam0n17 ) ) 0 ) ( = ( + ( * 1 lam0n8 ) ( * Nl4arg71 lam0n15 ) ( * Nl4arg72 lam0n16 ) ( * Nl4arg73 lam0n17 ) ) 0 ) ( = ( + ( * Nl4arg81 lam0n15 ) ( * Nl4arg82 lam0n16 ) ( * Nl4arg83 lam0n17 ) ) 0 ) ( = ( + ( * Nl4arg91 lam0n15 ) ( * Nl4arg92 lam0n16 ) ( * Nl4arg93 lam0n17 ) ) 0 ) ( = ( + ( * Nl4arg101 lam0n15 ) ( * Nl4arg102 lam0n16 ) ( * Nl4arg103 lam0n17 ) ) 0 ) ( = ( + ( * Nl4arg111 lam0n15 ) ( * Nl4arg112 lam0n16 ) ( * Nl4arg113 lam0n17 ) ) 0 ) ( = ( + ( * Nl4arg121 lam0n15 ) ( * Nl4arg122 lam0n16 ) ( * Nl4arg123 lam0n17 ) ) 0 ) ( = ( + ( * Nl4arg131 lam0n15 ) ( * Nl4arg132 lam0n16 ) ( * Nl4arg133 lam0n17 ) ) 0 ) ( = ( + ( * Nl4arg141 lam0n15 ) ( * Nl4arg142 lam0n16 ) ( * Nl4arg143 lam0n17 ) ) 0 ) ( = ( * ( - 1 ) lam0n13 ) 0 ) ( = ( * ( - 1 ) lam0n2 ) 0 ) ( = ( * ( - 1 ) lam0n3 ) 0 ) ( = ( * ( - 1 ) lam0n14 ) 0 ) ( = ( * ( - 1 ) lam0n4 ) 0 ) ( = ( * ( - 1 ) lam0n5 ) 0 ) ( = ( * ( - 1 ) lam0n6 ) 0 ) ) ( and ( >= lam1n0 0 ) ( >= lam1n1 0 ) ( >= lam1n2 0 ) ( >= lam1n3 0 ) ( >= lam1n4 0 ) ( >= lam1n5 0 ) ( >= lam1n6 0 ) ( >= lam1n7 0 ) ( >= lam1n8 0 ) ( >= lam1n9 0 ) ( >= lam1n10 0 ) ( >= lam1n11 0 ) ( >= lam1n12 0 ) ( >= lam1n13 0 ) ( >= lam1n14 0 ) ( >= lam1n15 0 ) ( >= lam1n16 0 ) ( >= lam1n17 0 ) ( > ( + ( * 1 lam1n0 ) ( * 3 lam1n7 ) ( * 3 lam1n8 ) ( * 2 lam1n9 ) ( * 2 lam1n10 ) ( * 2 lam1n11 ) ( * 4 lam1n12 ) ( * 4 lam1n13 ) ( * 4 lam1n14 ) ( * Nl4CT1 lam1n15 ) ( * Nl4CT2 lam1n16 ) ( * Nl4CT3 lam1n17 ) ( - 1 ( + ( + ( + ( + ( + ( + ( + ( + ( + ( + ( + ( + ( + Nl4CT1 ( * Nl4arg11 0 ) ) ( * Nl4arg21 ( - 1 ) ) ) ( * Nl4arg41 2 ) ) ( * Nl4arg51 0 ) ) ( * Nl4arg61 0 ) ) ( * Nl4arg71 0 ) ) ( * Nl4arg81 0 ) ) ( * Nl4arg91 0 ) ) ( * Nl4arg101 0 ) ) ( * Nl4arg111 0 ) ) ( * Nl4arg121 0 ) ) ( * Nl4arg131 0 ) ) ( * Nl4arg141 0 ) ) ) ) 0 ) ( = ( + ( * ( - 1 ) lam1n7 ) ( * ( - 1 ) lam1n8 ) ( * ( - 1 ) lam1n12 ) ( * Nl4arg11 lam1n15 ) ( * Nl4arg12 lam1n16 ) ( * Nl4arg13 lam1n17 ) ) 0 ) ( = ( + ( * ( - 1 ) lam1n0 ) ( * Nl4arg21 lam1n15 ) ( * Nl4arg22 lam1n16 ) ( * Nl4arg23 lam1n17 ) ( - ( + 0 ( * Nl4arg21 1 ) ) ) ) 0 ) ( = ( + ( * ( - 1 ) lam1n9 ) ( * ( - 1 ) lam1n10 ) ( * Nl4arg31 lam1n15 ) ( * Nl4arg32 lam1n16 ) ( * Nl4arg33 lam1n17 ) ( - ( + 0 Nl4arg31 ) ) ) 0 ) ( = ( + ( * ( - 1 ) lam1n1 ) ( * 1 lam1n10 ) ( * Nl4arg41 lam1n15 ) ( * Nl4arg42 lam1n16 ) ( * Nl4arg43 lam1n17 ) ( - ( + 0 ( * Nl4arg41 1 ) ) ) ) 0 ) ( = ( + ( * ( - 1 ) lam1n11 ) ( * Nl4arg51 lam1n15 ) ( * Nl4arg52 lam1n16 ) ( * Nl4arg53 lam1n17 ) ) 0 ) ( = ( + ( * 1 lam1n7 ) ( * Nl4arg61 lam1n15 ) ( * Nl4arg62 lam1n16 ) ( * Nl4arg63 lam1n17 ) ) 0 ) ( = ( + ( * 1 lam1n8 ) ( * Nl4arg71 lam1n15 ) ( * Nl4arg72 lam1n16 ) ( * Nl4arg73 lam1n17 ) ) 0 ) ( = ( + ( * Nl4arg81 lam1n15 ) ( * Nl4arg82 lam1n16 ) ( * Nl4arg83 lam1n17 ) ) 0 ) ( = ( + ( * Nl4arg91 lam1n15 ) ( * Nl4arg92 lam1n16 ) ( * Nl4arg93 lam1n17 ) ) 0 ) ( = ( + ( * Nl4arg101 lam1n15 ) ( * Nl4arg102 lam1n16 ) ( * Nl4arg103 lam1n17 ) ) 0 ) ( = ( + ( * Nl4arg111 lam1n15 ) ( * Nl4arg112 lam1n16 ) ( * Nl4arg113 lam1n17 ) ) 0 ) ( = ( + ( * Nl4arg121 lam1n15 ) ( * Nl4arg122 lam1n16 ) ( * Nl4arg123 lam1n17 ) ) 0 ) ( = ( + ( * Nl4arg131 lam1n15 ) ( * Nl4arg132 lam1n16 ) ( * Nl4arg133 lam1n17 ) ) 0 ) ( = ( + ( * Nl4arg141 lam1n15 ) ( * Nl4arg142 lam1n16 ) ( * Nl4arg143 lam1n17 ) ) 0 ) ( = ( + ( * ( - 1 ) lam1n13 ) ( - ( + 0 ( * Nl4arg11 1 ) ) ) ) 0 ) ( = ( - ( + 0 ( * Nl4arg51 1 ) ) ) 0 ) ( = ( - ( + 0 ( * Nl4arg61 1 ) ) ) 0 ) ( = ( - ( + 0 ( * Nl4arg71 1 ) ) ) 0 ) ( = ( - ( + 0 ( * Nl4arg81 1 ) ) ) 0 ) ( = ( - ( + 0 ( * Nl4arg91 1 ) ) ) 0 ) ( = ( - ( + 0 ( * Nl4arg101 1 ) ) ) 0 ) ( = ( - ( + 0 ( * Nl4arg111 1 ) ) ) 0 ) ( = ( - ( + 0 ( * Nl4arg121 1 ) ) ) 0 ) ( = ( - ( + 0 ( * Nl4arg131 1 ) ) ) 0 ) ( = ( - ( + 0 ( * Nl4arg141 1 ) ) ) 0 ) ( = ( * ( - 1 ) lam1n2 ) 0 ) ( = ( * ( - 1 ) lam1n3 ) 0 ) ( = ( * ( - 1 ) lam1n14 ) 0 ) ( = ( * ( - 1 ) lam1n4 ) 0 ) ( = ( * ( - 1 ) lam1n5 ) 0 ) ( = ( * ( - 1 ) lam1n6 ) 0 ) ) ))
(assert ( or ( and ( >= lam0n0 0 ) ( >= lam0n1 0 ) ( >= lam0n2 0 ) ( >= lam0n3 0 ) ( >= lam0n4 0 ) ( >= lam0n5 0 ) ( >= lam0n6 0 ) ( >= lam0n7 0 ) ( >= lam0n8 0 ) ( >= lam0n9 0 ) ( >= lam0n10 0 ) ( >= lam0n11 0 ) ( >= lam0n12 0 ) ( >= lam0n13 0 ) ( >= lam0n14 0 ) ( >= lam0n15 0 ) ( >= lam0n16 0 ) ( >= lam0n17 0 ) ( > ( + ( * 1 lam0n0 ) ( * 3 lam0n7 ) ( * 3 lam0n8 ) ( * 2 lam0n9 ) ( * 2 lam0n10 ) ( * 2 lam0n11 ) ( * 4 lam0n12 ) ( * 4 lam0n13 ) ( * 4 lam0n14 ) ( * Nl4CT1 lam0n15 ) ( * Nl4CT2 lam0n16 ) ( * Nl4CT3 lam0n17 ) ( - 1 ) ) 0 ) ( = ( + ( * ( - 1 ) lam0n7 ) ( * ( - 1 ) lam0n8 ) ( * ( - 1 ) lam0n12 ) ( * Nl4arg11 lam0n15 ) ( * Nl4arg12 lam0n16 ) ( * Nl4arg13 lam0n17 ) ) 0 ) ( = ( + ( * ( - 1 ) lam0n0 ) ( * Nl4arg21 lam0n15 ) ( * Nl4arg22 lam0n16 ) ( * Nl4arg23 lam0n17 ) ) 0 ) ( = ( + ( * ( - 1 ) lam0n9 ) ( * ( - 1 ) lam0n10 ) ( * Nl4arg31 lam0n15 ) ( * Nl4arg32 lam0n16 ) ( * Nl4arg33 lam0n17 ) ) 0 ) ( = ( + ( * ( - 1 ) lam0n1 ) ( * 1 lam0n10 ) ( * Nl4arg41 lam0n15 ) ( * Nl4arg42 lam0n16 ) ( * Nl4arg43 lam0n17 ) ) 0 ) ( = ( + ( * ( - 1 ) lam0n11 ) ( * Nl4arg51 lam0n15 ) ( * Nl4arg52 lam0n16 ) ( * Nl4arg53 lam0n17 ) ) 0 ) ( = ( + ( * 1 lam0n7 ) ( * Nl4arg61 lam0n15 ) ( * Nl4arg62 lam0n16 ) ( * Nl4arg63 lam0n17 ) ) 0 ) ( = ( + ( * 1 lam0n8 ) ( * Nl4arg71 lam0n15 ) ( * Nl4arg72 lam0n16 ) ( * Nl4arg73 lam0n17 ) ) 0 ) ( = ( + ( * Nl4arg81 lam0n15 ) ( * Nl4arg82 lam0n16 ) ( * Nl4arg83 lam0n17 ) ) 0 ) ( = ( + ( * Nl4arg91 lam0n15 ) ( * Nl4arg92 lam0n16 ) ( * Nl4arg93 lam0n17 ) ) 0 ) ( = ( + ( * Nl4arg101 lam0n15 ) ( * Nl4arg102 lam0n16 ) ( * Nl4arg103 lam0n17 ) ) 0 ) ( = ( + ( * Nl4arg111 lam0n15 ) ( * Nl4arg112 lam0n16 ) ( * Nl4arg113 lam0n17 ) ) 0 ) ( = ( + ( * Nl4arg121 lam0n15 ) ( * Nl4arg122 lam0n16 ) ( * Nl4arg123 lam0n17 ) ) 0 ) ( = ( + ( * Nl4arg131 lam0n15 ) ( * Nl4arg132 lam0n16 ) ( * Nl4arg133 lam0n17 ) ) 0 ) ( = ( + ( * Nl4arg141 lam0n15 ) ( * Nl4arg142 lam0n16 ) ( * Nl4arg143 lam0n17 ) ) 0 ) ( = ( * ( - 1 ) lam0n13 ) 0 ) ( = ( * ( - 1 ) lam0n2 ) 0 ) ( = ( * ( - 1 ) lam0n3 ) 0 ) ( = ( * ( - 1 ) lam0n14 ) 0 ) ( = ( * ( - 1 ) lam0n4 ) 0 ) ( = ( * ( - 1 ) lam0n5 ) 0 ) ( = ( * ( - 1 ) lam0n6 ) 0 ) ) ( and ( >= lam2n0 0 ) ( >= lam2n1 0 ) ( >= lam2n2 0 ) ( >= lam2n3 0 ) ( >= lam2n4 0 ) ( >= lam2n5 0 ) ( >= lam2n6 0 ) ( >= lam2n7 0 ) ( >= lam2n8 0 ) ( >= lam2n9 0 ) ( >= lam2n10 0 ) ( >= lam2n11 0 ) ( >= lam2n12 0 ) ( >= lam2n13 0 ) ( >= lam2n14 0 ) ( >= lam2n15 0 ) ( >= lam2n16 0 ) ( >= lam2n17 0 ) ( > ( + ( * 1 lam2n0 ) ( * 3 lam2n7 ) ( * 3 lam2n8 ) ( * 2 lam2n9 ) ( * 2 lam2n10 ) ( * 2 lam2n11 ) ( * 4 lam2n12 ) ( * 4 lam2n13 ) ( * 4 lam2n14 ) ( * Nl4CT1 lam2n15 ) ( * Nl4CT2 lam2n16 ) ( * Nl4CT3 lam2n17 ) ( - 1 ( + ( + ( + ( + ( + ( + ( + ( + ( + ( + ( + ( + ( + Nl4CT2 ( * Nl4arg12 0 ) ) ( * Nl4arg22 ( - 1 ) ) ) ( * Nl4arg42 2 ) ) ( * Nl4arg52 0 ) ) ( * Nl4arg62 0 ) ) ( * Nl4arg72 0 ) ) ( * Nl4arg82 0 ) ) ( * Nl4arg92 0 ) ) ( * Nl4arg102 0 ) ) ( * Nl4arg112 0 ) ) ( * Nl4arg122 0 ) ) ( * Nl4arg132 0 ) ) ( * Nl4arg142 0 ) ) ) ) 0 ) ( = ( + ( * ( - 1 ) lam2n7 ) ( * ( - 1 ) lam2n8 ) ( * ( - 1 ) lam2n12 ) ( * Nl4arg11 lam2n15 ) ( * Nl4arg12 lam2n16 ) ( * Nl4arg13 lam2n17 ) ) 0 ) ( = ( + ( * ( - 1 ) lam2n0 ) ( * Nl4arg21 lam2n15 ) ( * Nl4arg22 lam2n16 ) ( * Nl4arg23 lam2n17 ) ( - ( + 0 ( * Nl4arg22 1 ) ) ) ) 0 ) ( = ( + ( * ( - 1 ) lam2n9 ) ( * ( - 1 ) lam2n10 ) ( * Nl4arg31 lam2n15 ) ( * Nl4arg32 lam2n16 ) ( * Nl4arg33 lam2n17 ) ( - ( + 0 Nl4arg32 ) ) ) 0 ) ( = ( + ( * ( - 1 ) lam2n1 ) ( * 1 lam2n10 ) ( * Nl4arg41 lam2n15 ) ( * Nl4arg42 lam2n16 ) ( * Nl4arg43 lam2n17 ) ( - ( + 0 ( * Nl4arg42 1 ) ) ) ) 0 ) ( = ( + ( * ( - 1 ) lam2n11 ) ( * Nl4arg51 lam2n15 ) ( * Nl4arg52 lam2n16 ) ( * Nl4arg53 lam2n17 ) ) 0 ) ( = ( + ( * 1 lam2n7 ) ( * Nl4arg61 lam2n15 ) ( * Nl4arg62 lam2n16 ) ( * Nl4arg63 lam2n17 ) ) 0 ) ( = ( + ( * 1 lam2n8 ) ( * Nl4arg71 lam2n15 ) ( * Nl4arg72 lam2n16 ) ( * Nl4arg73 lam2n17 ) ) 0 ) ( = ( + ( * Nl4arg81 lam2n15 ) ( * Nl4arg82 lam2n16 ) ( * Nl4arg83 lam2n17 ) ) 0 ) ( = ( + ( * Nl4arg91 lam2n15 ) ( * Nl4arg92 lam2n16 ) ( * Nl4arg93 lam2n17 ) ) 0 ) ( = ( + ( * Nl4arg101 lam2n15 ) ( * Nl4arg102 lam2n16 ) ( * Nl4arg103 lam2n17 ) ) 0 ) ( = ( + ( * Nl4arg111 lam2n15 ) ( * Nl4arg112 lam2n16 ) ( * Nl4arg113 lam2n17 ) ) 0 ) ( = ( + ( * Nl4arg121 lam2n15 ) ( * Nl4arg122 lam2n16 ) ( * Nl4arg123 lam2n17 ) ) 0 ) ( = ( + ( * Nl4arg131 lam2n15 ) ( * Nl4arg132 lam2n16 ) ( * Nl4arg133 lam2n17 ) ) 0 ) ( = ( + ( * Nl4arg141 lam2n15 ) ( * Nl4arg142 lam2n16 ) ( * Nl4arg143 lam2n17 ) ) 0 ) ( = ( + ( * ( - 1 ) lam2n13 ) ( - ( + 0 ( * Nl4arg12 1 ) ) ) ) 0 ) ( = ( - ( + 0 ( * Nl4arg52 1 ) ) ) 0 ) ( = ( - ( + 0 ( * Nl4arg62 1 ) ) ) 0 ) ( = ( - ( + 0 ( * Nl4arg72 1 ) ) ) 0 ) ( = ( - ( + 0 ( * Nl4arg82 1 ) ) ) 0 ) ( = ( - ( + 0 ( * Nl4arg92 1 ) ) ) 0 ) ( = ( - ( + 0 ( * Nl4arg102 1 ) ) ) 0 ) ( = ( - ( + 0 ( * Nl4arg112 1 ) ) ) 0 ) ( = ( - ( + 0 ( * Nl4arg122 1 ) ) ) 0 ) ( = ( - ( + 0 ( * Nl4arg132 1 ) ) ) 0 ) ( = ( - ( + 0 ( * Nl4arg142 1 ) ) ) 0 ) ( = ( * ( - 1 ) lam2n2 ) 0 ) ( = ( * ( - 1 ) lam2n3 ) 0 ) ( = ( * ( - 1 ) lam2n14 ) 0 ) ( = ( * ( - 1 ) lam2n4 ) 0 ) ( = ( * ( - 1 ) lam2n5 ) 0 ) ( = ( * ( - 1 ) lam2n6 ) 0 ) ) ))
(assert ( or ( and ( >= lam0n0 0 ) ( >= lam0n1 0 ) ( >= lam0n2 0 ) ( >= lam0n3 0 ) ( >= lam0n4 0 ) ( >= lam0n5 0 ) ( >= lam0n6 0 ) ( >= lam0n7 0 ) ( >= lam0n8 0 ) ( >= lam0n9 0 ) ( >= lam0n10 0 ) ( >= lam0n11 0 ) ( >= lam0n12 0 ) ( >= lam0n13 0 ) ( >= lam0n14 0 ) ( >= lam0n15 0 ) ( >= lam0n16 0 ) ( >= lam0n17 0 ) ( > ( + ( * 1 lam0n0 ) ( * 3 lam0n7 ) ( * 3 lam0n8 ) ( * 2 lam0n9 ) ( * 2 lam0n10 ) ( * 2 lam0n11 ) ( * 4 lam0n12 ) ( * 4 lam0n13 ) ( * 4 lam0n14 ) ( * Nl4CT1 lam0n15 ) ( * Nl4CT2 lam0n16 ) ( * Nl4CT3 lam0n17 ) ( - 1 ) ) 0 ) ( = ( + ( * ( - 1 ) lam0n7 ) ( * ( - 1 ) lam0n8 ) ( * ( - 1 ) lam0n12 ) ( * Nl4arg11 lam0n15 ) ( * Nl4arg12 lam0n16 ) ( * Nl4arg13 lam0n17 ) ) 0 ) ( = ( + ( * ( - 1 ) lam0n0 ) ( * Nl4arg21 lam0n15 ) ( * Nl4arg22 lam0n16 ) ( * Nl4arg23 lam0n17 ) ) 0 ) ( = ( + ( * ( - 1 ) lam0n9 ) ( * ( - 1 ) lam0n10 ) ( * Nl4arg31 lam0n15 ) ( * Nl4arg32 lam0n16 ) ( * Nl4arg33 lam0n17 ) ) 0 ) ( = ( + ( * ( - 1 ) lam0n1 ) ( * 1 lam0n10 ) ( * Nl4arg41 lam0n15 ) ( * Nl4arg42 lam0n16 ) ( * Nl4arg43 lam0n17 ) ) 0 ) ( = ( + ( * ( - 1 ) lam0n11 ) ( * Nl4arg51 lam0n15 ) ( * Nl4arg52 lam0n16 ) ( * Nl4arg53 lam0n17 ) ) 0 ) ( = ( + ( * 1 lam0n7 ) ( * Nl4arg61 lam0n15 ) ( * Nl4arg62 lam0n16 ) ( * Nl4arg63 lam0n17 ) ) 0 ) ( = ( + ( * 1 lam0n8 ) ( * Nl4arg71 lam0n15 ) ( * Nl4arg72 lam0n16 ) ( * Nl4arg73 lam0n17 ) ) 0 ) ( = ( + ( * Nl4arg81 lam0n15 ) ( * Nl4arg82 lam0n16 ) ( * Nl4arg83 lam0n17 ) ) 0 ) ( = ( + ( * Nl4arg91 lam0n15 ) ( * Nl4arg92 lam0n16 ) ( * Nl4arg93 lam0n17 ) ) 0 ) ( = ( + ( * Nl4arg101 lam0n15 ) ( * Nl4arg102 lam0n16 ) ( * Nl4arg103 lam0n17 ) ) 0 ) ( = ( + ( * Nl4arg111 lam0n15 ) ( * Nl4arg112 lam0n16 ) ( * Nl4arg113 lam0n17 ) ) 0 ) ( = ( + ( * Nl4arg121 lam0n15 ) ( * Nl4arg122 lam0n16 ) ( * Nl4arg123 lam0n17 ) ) 0 ) ( = ( + ( * Nl4arg131 lam0n15 ) ( * Nl4arg132 lam0n16 ) ( * Nl4arg133 lam0n17 ) ) 0 ) ( = ( + ( * Nl4arg141 lam0n15 ) ( * Nl4arg142 lam0n16 ) ( * Nl4arg143 lam0n17 ) ) 0 ) ( = ( * ( - 1 ) lam0n13 ) 0 ) ( = ( * ( - 1 ) lam0n2 ) 0 ) ( = ( * ( - 1 ) lam0n3 ) 0 ) ( = ( * ( - 1 ) lam0n14 ) 0 ) ( = ( * ( - 1 ) lam0n4 ) 0 ) ( = ( * ( - 1 ) lam0n5 ) 0 ) ( = ( * ( - 1 ) lam0n6 ) 0 ) ) ( and ( >= lam3n0 0 ) ( >= lam3n1 0 ) ( >= lam3n2 0 ) ( >= lam3n3 0 ) ( >= lam3n4 0 ) ( >= lam3n5 0 ) ( >= lam3n6 0 ) ( >= lam3n7 0 ) ( >= lam3n8 0 ) ( >= lam3n9 0 ) ( >= lam3n10 0 ) ( >= lam3n11 0 ) ( >= lam3n12 0 ) ( >= lam3n13 0 ) ( >= lam3n14 0 ) ( >= lam3n15 0 ) ( >= lam3n16 0 ) ( >= lam3n17 0 ) ( > ( + ( * 1 lam3n0 ) ( * 3 lam3n7 ) ( * 3 lam3n8 ) ( * 2 lam3n9 ) ( * 2 lam3n10 ) ( * 2 lam3n11 ) ( * 4 lam3n12 ) ( * 4 lam3n13 ) ( * 4 lam3n14 ) ( * Nl4CT1 lam3n15 ) ( * Nl4CT2 lam3n16 ) ( * Nl4CT3 lam3n17 ) ( - 1 ( + ( + ( + ( + ( + ( + ( + ( + ( + ( + ( + ( + ( + Nl4CT3 ( * Nl4arg13 0 ) ) ( * Nl4arg23 ( - 1 ) ) ) ( * Nl4arg43 2 ) ) ( * Nl4arg53 0 ) ) ( * Nl4arg63 0 ) ) ( * Nl4arg73 0 ) ) ( * Nl4arg83 0 ) ) ( * Nl4arg93 0 ) ) ( * Nl4arg103 0 ) ) ( * Nl4arg113 0 ) ) ( * Nl4arg123 0 ) ) ( * Nl4arg133 0 ) ) ( * Nl4arg143 0 ) ) ) ) 0 ) ( = ( + ( * ( - 1 ) lam3n7 ) ( * ( - 1 ) lam3n8 ) ( * ( - 1 ) lam3n12 ) ( * Nl4arg11 lam3n15 ) ( * Nl4arg12 lam3n16 ) ( * Nl4arg13 lam3n17 ) ) 0 ) ( = ( + ( * ( - 1 ) lam3n0 ) ( * Nl4arg21 lam3n15 ) ( * Nl4arg22 lam3n16 ) ( * Nl4arg23 lam3n17 ) ( - ( + 0 ( * Nl4arg23 1 ) ) ) ) 0 ) ( = ( + ( * ( - 1 ) lam3n9 ) ( * ( - 1 ) lam3n10 ) ( * Nl4arg31 lam3n15 ) ( * Nl4arg32 lam3n16 ) ( * Nl4arg33 lam3n17 ) ( - ( + 0 Nl4arg33 ) ) ) 0 ) ( = ( + ( * ( - 1 ) lam3n1 ) ( * 1 lam3n10 ) ( * Nl4arg41 lam3n15 ) ( * Nl4arg42 lam3n16 ) ( * Nl4arg43 lam3n17 ) ( - ( + 0 ( * Nl4arg43 1 ) ) ) ) 0 ) ( = ( + ( * ( - 1 ) lam3n11 ) ( * Nl4arg51 lam3n15 ) ( * Nl4arg52 lam3n16 ) ( * Nl4arg53 lam3n17 ) ) 0 ) ( = ( + ( * 1 lam3n7 ) ( * Nl4arg61 lam3n15 ) ( * Nl4arg62 lam3n16 ) ( * Nl4arg63 lam3n17 ) ) 0 ) ( = ( + ( * 1 lam3n8 ) ( * Nl4arg71 lam3n15 ) ( * Nl4arg72 lam3n16 ) ( * Nl4arg73 lam3n17 ) ) 0 ) ( = ( + ( * Nl4arg81 lam3n15 ) ( * Nl4arg82 lam3n16 ) ( * Nl4arg83 lam3n17 ) ) 0 ) ( = ( + ( * Nl4arg91 lam3n15 ) ( * Nl4arg92 lam3n16 ) ( * Nl4arg93 lam3n17 ) ) 0 ) ( = ( + ( * Nl4arg101 lam3n15 ) ( * Nl4arg102 lam3n16 ) ( * Nl4arg103 lam3n17 ) ) 0 ) ( = ( + ( * Nl4arg111 lam3n15 ) ( * Nl4arg112 lam3n16 ) ( * Nl4arg113 lam3n17 ) ) 0 ) ( = ( + ( * Nl4arg121 lam3n15 ) ( * Nl4arg122 lam3n16 ) ( * Nl4arg123 lam3n17 ) ) 0 ) ( = ( + ( * Nl4arg131 lam3n15 ) ( * Nl4arg132 lam3n16 ) ( * Nl4arg133 lam3n17 ) ) 0 ) ( = ( + ( * Nl4arg141 lam3n15 ) ( * Nl4arg142 lam3n16 ) ( * Nl4arg143 lam3n17 ) ) 0 ) ( = ( + ( * ( - 1 ) lam3n13 ) ( - ( + 0 ( * Nl4arg13 1 ) ) ) ) 0 ) ( = ( - ( + 0 ( * Nl4arg53 1 ) ) ) 0 ) ( = ( - ( + 0 ( * Nl4arg63 1 ) ) ) 0 ) ( = ( - ( + 0 ( * Nl4arg73 1 ) ) ) 0 ) ( = ( - ( + 0 ( * Nl4arg83 1 ) ) ) 0 ) ( = ( - ( + 0 ( * Nl4arg93 1 ) ) ) 0 ) ( = ( - ( + 0 ( * Nl4arg103 1 ) ) ) 0 ) ( = ( - ( + 0 ( * Nl4arg113 1 ) ) ) 0 ) ( = ( - ( + 0 ( * Nl4arg123 1 ) ) ) 0 ) ( = ( - ( + 0 ( * Nl4arg133 1 ) ) ) 0 ) ( = ( - ( + 0 ( * Nl4arg143 1 ) ) ) 0 ) ( = ( * ( - 1 ) lam3n2 ) 0 ) ( = ( * ( - 1 ) lam3n3 ) 0 ) ( = ( * ( - 1 ) lam3n14 ) 0 ) ( = ( * ( - 1 ) lam3n4 ) 0 ) ( = ( * ( - 1 ) lam3n5 ) 0 ) ( = ( * ( - 1 ) lam3n6 ) 0 ) ) ))
(assert ( and ( <= ( + 1 ( * ( - 1 ) undef402 ) ) 0 ) ( <= ( * ( - 1 ) undef31 ) 0 ) ( <= ( * ( - 1 ) undef191 ) 0 ) ( <= ( * ( - 1 ) undef202 ) 0 ) ( <= ( * ( - 1 ) undef203 ) 0 ) ( not ( <= ( + ( - 1 ) undef403 ) 0 ) ) ( <= ( + 4 ( * ( - 1 ) undef188 ) ) 0 ) ( <= ( + ( - 14 ) undef30 ( * ( - 1 ) undef402 ) ) 0 ) ( <= ( + 15 ( * ( - 1 ) undef30 ) ) 0 ) ( <= ( + ( + ( + ( + ( + ( + ( + ( + ( + ( + ( + ( + ( + ( + ( + Nl4CT1 ( * Nl4arg11 0 ) ) ( * Nl4arg21 0 ) ) ( * Nl4arg31 0 ) ) ( * Nl4arg41 1 ) ) ( * Nl4arg51 16 ) ) ( * Nl4arg61 0 ) ) ( * Nl4arg71 12 ) ) ( * Nl4arg81 0 ) ) ( * Nl4arg91 0 ) ) ( * Nl4arg101 0 ) ) ( * Nl4arg111 0 ) ) ( * Nl4arg121 0 ) ) ( * Nl4arg131 0 ) ) ( * Nl4arg141 0 ) ) ( * ( + 0 ( * Nl4arg11 1 ) ) undef30 ) ( * ( + 0 ( * Nl4arg21 1 ) ) undef31 ) ( * ( + 0 ( * Nl4arg81 1 ) ) undef37 ) ( * ( + 0 ( * Nl4arg91 1 ) ) undef38 ) ( * ( + 0 ( * Nl4arg101 1 ) ) undef39 ) ( * ( + 0 ( * Nl4arg111 1 ) ) undef40 ) ( * ( + 0 ( * Nl4arg121 1 ) ) undef41 ) ( * ( + 0 ( * Nl4arg131 1 ) ) undef42 ) ( * ( + 0 ( * Nl4arg141 1 ) ) undef43 ) ( * ( + 0 ( * Nl4arg31 1 ) ) undef403 ) ) 0 ) ( <= ( + ( + ( + ( + ( + ( + ( + ( + ( + ( + ( + ( + ( + ( + ( + Nl4CT2 ( * Nl4arg12 0 ) ) ( * Nl4arg22 0 ) ) ( * Nl4arg32 0 ) ) ( * Nl4arg42 1 ) ) ( * Nl4arg52 16 ) ) ( * Nl4arg62 0 ) ) ( * Nl4arg72 12 ) ) ( * Nl4arg82 0 ) ) ( * Nl4arg92 0 ) ) ( * Nl4arg102 0 ) ) ( * Nl4arg112 0 ) ) ( * Nl4arg122 0 ) ) ( * Nl4arg132 0 ) ) ( * Nl4arg142 0 ) ) ( * ( + 0 ( * Nl4arg12 1 ) ) undef30 ) ( * ( + 0 ( * Nl4arg22 1 ) ) undef31 ) ( * ( + 0 ( * Nl4arg82 1 ) ) undef37 ) ( * ( + 0 ( * Nl4arg92 1 ) ) undef38 ) ( * ( + 0 ( * Nl4arg102 1 ) ) undef39 ) ( * ( + 0 ( * Nl4arg112 1 ) ) undef40 ) ( * ( + 0 ( * Nl4arg122 1 ) ) undef41 ) ( * ( + 0 ( * Nl4arg132 1 ) ) undef42 ) ( * ( + 0 ( * Nl4arg142 1 ) ) undef43 ) ( * ( + 0 ( * Nl4arg32 1 ) ) undef403 ) ) 0 ) ( <= ( + ( + ( + ( + ( + ( + ( + ( + ( + ( + ( + ( + ( + ( + ( + Nl4CT3 ( * Nl4arg13 0 ) ) ( * Nl4arg23 0 ) ) ( * Nl4arg33 0 ) ) ( * Nl4arg43 1 ) ) ( * Nl4arg53 16 ) ) ( * Nl4arg63 0 ) ) ( * Nl4arg73 12 ) ) ( * Nl4arg83 0 ) ) ( * Nl4arg93 0 ) ) ( * Nl4arg103 0 ) ) ( * Nl4arg113 0 ) ) ( * Nl4arg123 0 ) ) ( * Nl4arg133 0 ) ) ( * Nl4arg143 0 ) ) ( * ( + 0 ( * Nl4arg13 1 ) ) undef30 ) ( * ( + 0 ( * Nl4arg23 1 ) ) undef31 ) ( * ( + 0 ( * Nl4arg83 1 ) ) undef37 ) ( * ( + 0 ( * Nl4arg93 1 ) ) undef38 ) ( * ( + 0 ( * Nl4arg103 1 ) ) undef39 ) ( * ( + 0 ( * Nl4arg113 1 ) ) undef40 ) ( * ( + 0 ( * Nl4arg123 1 ) ) undef41 ) ( * ( + 0 ( * Nl4arg133 1 ) ) undef42 ) ( * ( + 0 ( * Nl4arg143 1 ) ) undef43 ) ( * ( + 0 ( * Nl4arg33 1 ) ) undef403 ) ) 0 ) ))
(assert ( or ( or ( and ( >= lam7n0 0 ) ( >= lam7n1 0 ) ( >= lam7n2 0 ) ( >= lam7n3 0 ) ( >= lam7n4 0 ) ( >= lam7n5 0 ) ( >= lam7n6 0 ) ( >= lam7n7 0 ) ( >= lam7n8 0 ) ( >= lam7n9 0 ) ( >= lam7n10 0 ) ( >= lam7n11 0 ) ( >= lam7n12 0 ) ( >= lam7n13 0 ) ( >= lam7n14 0 ) ( >= lam7n15 0 ) ( >= lam7n16 0 ) ( >= lam7n17 0 ) ( >= lam7n18 0 ) ( >= lam7n19 0 ) ( >= lam7n20 0 ) ( >= lam7n21 0 ) ( >= lam7n22 0 ) ( >= lam7n23 0 ) ( >= lam7n24 0 ) ( >= lam7n25 0 ) ( >= lam7n26 0 ) ( >= lam7n27 0 ) ( > ( + ( * 1 lam7n0 ) ( * 1 lam7n1 ) ( * 1 lam7n2 ) ( * 1 lam7n3 ) ( * 3 lam7n11 ) ( * 3 lam7n12 ) ( * 3 lam7n13 ) ( * 3 lam7n14 ) ( * 2 lam7n15 ) ( * 2 lam7n16 ) ( * 2 lam7n17 ) ( * 2 lam7n18 ) ( * 2 lam7n19 ) ( * 2 lam7n20 ) ( * 4 lam7n21 ) ( * 4 lam7n22 ) ( * 4 lam7n23 ) ( * ( - 1073741823 ) lam7n24 ) ( * Nl4CT1 lam7n25 ) ( * Nl4CT2 lam7n26 ) ( * Nl4CT3 lam7n27 ) ( - 1 ) ) 0 ) ( = ( + ( * ( - 1 ) lam7n4 ) ( * ( - 1 ) lam7n11 ) ( * ( - 1 ) lam7n12 ) ( * ( - 1 ) lam7n21 ) ( * Nl4arg11 lam7n25 ) ( * Nl4arg12 lam7n26 ) ( * Nl4arg13 lam7n27 ) ) 0 ) ( = ( + ( * ( - 1 ) lam7n0 ) ( * Nl4arg21 lam7n25 ) ( * Nl4arg22 lam7n26 ) ( * Nl4arg23 lam7n27 ) ) 0 ) ( = ( + ( * ( - 1 ) lam7n5 ) ( * ( - 1 ) lam7n15 ) ( * Nl4arg31 lam7n25 ) ( * Nl4arg32 lam7n26 ) ( * Nl4arg33 lam7n27 ) ) 0 ) ( = ( + ( * ( - 1 ) lam7n6 ) ( * 1 lam7n15 ) ( * Nl4arg41 lam7n25 ) ( * Nl4arg42 lam7n26 ) ( * Nl4arg43 lam7n27 ) ) 0 ) ( = ( + ( * ( - 1 ) lam7n1 ) ( * ( - 1 ) lam7n16 ) ( * ( - 1 ) lam7n17 ) ( * 1 lam7n24 ) ( * Nl4arg51 lam7n25 ) ( * Nl4arg52 lam7n26 ) ( * Nl4arg53 lam7n27 ) ) 0 ) ( = ( + ( * ( - 1 ) lam7n7 ) ( * 1 lam7n11 ) ( * 1 lam7n13 ) ( * 1 lam7n18 ) ( * Nl4arg61 lam7n25 ) ( * Nl4arg62 lam7n26 ) ( * Nl4arg63 lam7n27 ) ) 0 ) ( = ( + ( * 1 lam7n7 ) ( * 1 lam7n12 ) ( * 1 lam7n14 ) ( * 1 lam7n17 ) ( * 1 lam7n19 ) ( * 1 lam7n20 ) ( * Nl4arg71 lam7n25 ) ( * Nl4arg72 lam7n26 ) ( * Nl4arg73 lam7n27 ) ) 0 ) ( = ( + ( * Nl4arg81 lam7n25 ) ( * Nl4arg82 lam7n26 ) ( * Nl4arg83 lam7n27 ) ) 0 ) ( = ( + ( * Nl4arg91 lam7n25 ) ( * Nl4arg92 lam7n26 ) ( * Nl4arg93 lam7n27 ) ) 0 ) ( = ( + ( * Nl4arg101 lam7n25 ) ( * Nl4arg102 lam7n26 ) ( * Nl4arg103 lam7n27 ) ) 0 ) ( = ( + ( * Nl4arg111 lam7n25 ) ( * Nl4arg112 lam7n26 ) ( * Nl4arg113 lam7n27 ) ) 0 ) ( = ( + ( * Nl4arg121 lam7n25 ) ( * Nl4arg122 lam7n26 ) ( * Nl4arg123 lam7n27 ) ) 0 ) ( = ( + ( * Nl4arg131 lam7n25 ) ( * Nl4arg132 lam7n26 ) ( * Nl4arg133 lam7n27 ) ) 0 ) ( = ( + ( * Nl4arg141 lam7n25 ) ( * Nl4arg142 lam7n26 ) ( * Nl4arg143 lam7n27 ) ) 0 ) ( = ( + ( * 1 lam7n4 ) ( * ( - 1 ) lam7n18 ) ( * ( - 1 ) lam7n19 ) ( * ( - 1 ) lam7n22 ) ) 0 ) ( = ( * 1 lam7n1 ) 0 ) ( = ( * ( - 1 ) lam7n8 ) 0 ) ( = ( * ( - 1 ) lam7n9 ) 0 ) ( = ( * ( - 1 ) lam7n10 ) 0 ) ( = ( + ( * ( - 1 ) lam7n13 ) ( * ( - 1 ) lam7n14 ) ( * ( - 1 ) lam7n17 ) ( * ( - 1 ) lam7n20 ) ( * ( - 1 ) lam7n23 ) ) 0 ) ( = ( * ( - 1 ) lam7n2 ) 0 ) ( = ( + ( * ( - 1 ) lam7n3 ) ( * ( - 1 ) lam7n13 ) ( * ( - 1 ) lam7n14 ) ) 0 ) ) ( and ( >= lam8n0 0 ) ( >= lam8n1 0 ) ( >= lam8n2 0 ) ( >= lam8n3 0 ) ( >= lam8n4 0 ) ( >= lam8n5 0 ) ( >= lam8n6 0 ) ( >= lam8n7 0 ) ( >= lam8n8 0 ) ( >= lam8n9 0 ) ( >= lam8n10 0 ) ( >= lam8n11 0 ) ( >= lam8n12 0 ) ( >= lam8n13 0 ) ( >= lam8n14 0 ) ( >= lam8n15 0 ) ( >= lam8n16 0 ) ( >= lam8n17 0 ) ( >= lam8n18 0 ) ( >= lam8n19 0 ) ( >= lam8n20 0 ) ( >= lam8n21 0 ) ( >= lam8n22 0 ) ( >= lam8n23 0 ) ( >= lam8n24 0 ) ( >= lam8n25 0 ) ( >= lam8n26 0 ) ( >= lam8n27 0 ) ( > ( + ( * 1 lam8n0 ) ( * 1 lam8n1 ) ( * 1 lam8n2 ) ( * 1 lam8n3 ) ( * 3 lam8n11 ) ( * 3 lam8n12 ) ( * 3 lam8n13 ) ( * 3 lam8n14 ) ( * 2 lam8n15 ) ( * 2 lam8n16 ) ( * 2 lam8n17 ) ( * 2 lam8n18 ) ( * 2 lam8n19 ) ( * 2 lam8n20 ) ( * 4 lam8n21 ) ( * 4 lam8n22 ) ( * 4 lam8n23 ) ( * ( - 1073741823 ) lam8n24 ) ( * Nl4CT1 lam8n25 ) ( * Nl4CT2 lam8n26 ) ( * Nl4CT3 lam8n27 ) ) 0 ) ( = ( + ( * ( - 1 ) lam8n4 ) ( * ( - 1 ) lam8n11 ) ( * ( - 1 ) lam8n12 ) ( * ( - 1 ) lam8n21 ) ( * Nl4arg11 lam8n25 ) ( * Nl4arg12 lam8n26 ) ( * Nl4arg13 lam8n27 ) ) 0 ) ( = ( + ( * ( - 1 ) lam8n0 ) ( * Nl4arg21 lam8n25 ) ( * Nl4arg22 lam8n26 ) ( * Nl4arg23 lam8n27 ) ) 0 ) ( = ( + ( * ( - 1 ) lam8n5 ) ( * ( - 1 ) lam8n15 ) ( * Nl4arg31 lam8n25 ) ( * Nl4arg32 lam8n26 ) ( * Nl4arg33 lam8n27 ) ) 0 ) ( = ( + ( * ( - 1 ) lam8n6 ) ( * 1 lam8n15 ) ( * Nl4arg41 lam8n25 ) ( * Nl4arg42 lam8n26 ) ( * Nl4arg43 lam8n27 ) ( - 1 ) ) 0 ) ( = ( + ( * ( - 1 ) lam8n1 ) ( * ( - 1 ) lam8n16 ) ( * ( - 1 ) lam8n17 ) ( * 1 lam8n24 ) ( * Nl4arg51 lam8n25 ) ( * Nl4arg52 lam8n26 ) ( * Nl4arg53 lam8n27 ) ) 0 ) ( = ( + ( * ( - 1 ) lam8n7 ) ( * 1 lam8n11 ) ( * 1 lam8n13 ) ( * 1 lam8n18 ) ( * Nl4arg61 lam8n25 ) ( * Nl4arg62 lam8n26 ) ( * Nl4arg63 lam8n27 ) ) 0 ) ( = ( + ( * 1 lam8n7 ) ( * 1 lam8n12 ) ( * 1 lam8n14 ) ( * 1 lam8n17 ) ( * 1 lam8n19 ) ( * 1 lam8n20 ) ( * Nl4arg71 lam8n25 ) ( * Nl4arg72 lam8n26 ) ( * Nl4arg73 lam8n27 ) ) 0 ) ( = ( + ( * Nl4arg81 lam8n25 ) ( * Nl4arg82 lam8n26 ) ( * Nl4arg83 lam8n27 ) ) 0 ) ( = ( + ( * Nl4arg91 lam8n25 ) ( * Nl4arg92 lam8n26 ) ( * Nl4arg93 lam8n27 ) ) 0 ) ( = ( + ( * Nl4arg101 lam8n25 ) ( * Nl4arg102 lam8n26 ) ( * Nl4arg103 lam8n27 ) ) 0 ) ( = ( + ( * Nl4arg111 lam8n25 ) ( * Nl4arg112 lam8n26 ) ( * Nl4arg113 lam8n27 ) ) 0 ) ( = ( + ( * Nl4arg121 lam8n25 ) ( * Nl4arg122 lam8n26 ) ( * Nl4arg123 lam8n27 ) ) 0 ) ( = ( + ( * Nl4arg131 lam8n25 ) ( * Nl4arg132 lam8n26 ) ( * Nl4arg133 lam8n27 ) ) 0 ) ( = ( + ( * Nl4arg141 lam8n25 ) ( * Nl4arg142 lam8n26 ) ( * Nl4arg143 lam8n27 ) ) 0 ) ( = ( + ( * 1 lam8n4 ) ( * ( - 1 ) lam8n18 ) ( * ( - 1 ) lam8n19 ) ( * ( - 1 ) lam8n22 ) ( - 1 ) ) 0 ) ( = ( - 1 ) 0 ) ( = ( * 1 lam8n1 ) 0 ) ( = ( + ( * ( - 1 ) lam8n8 ) ( - 1 ) ) 0 ) ( = ( * ( - 1 ) lam8n9 ) 0 ) ( = ( * ( - 1 ) lam8n10 ) 0 ) ( = ( + ( * ( - 1 ) lam8n13 ) ( * ( - 1 ) lam8n14 ) ( * ( - 1 ) lam8n17 ) ( * ( - 1 ) lam8n20 ) ( * ( - 1 ) lam8n23 ) ) 0 ) ( = ( * ( - 1 ) lam8n2 ) 0 ) ( = ( + ( * ( - 1 ) lam8n3 ) ( * ( - 1 ) lam8n13 ) ( * ( - 1 ) lam8n14 ) ) 0 ) ) ) ( and ( and ( and ( >= lam4n0 0 ) ( >= lam4n1 0 ) ( >= lam4n2 0 ) ( >= lam4n3 0 ) ( >= lam4n4 0 ) ( >= lam4n5 0 ) ( >= lam4n6 0 ) ( >= lam4n7 0 ) ( >= lam4n8 0 ) ( > ( + ( * 1 lam4n0 ) ( * 2 lam4n5 ) ( * 4 lam4n6 ) ( * ( - 14 ) lam4n7 ) ( * 15 lam4n8 ) ( - 1 ( + ( + ( + ( + ( + ( + ( + ( + ( + ( + ( + ( + ( + ( + Nl4CT1 ( * Nl4arg11 0 ) ) ( * Nl4arg21 0 ) ) ( * Nl4arg31 0 ) ) ( * Nl4arg41 1 ) ) ( * Nl4arg51 16 ) ) ( * Nl4arg61 0 ) ) ( * Nl4arg71 12 ) ) ( * Nl4arg81 0 ) ) ( * Nl4arg91 0 ) ) ( * Nl4arg101 0 ) ) ( * Nl4arg111 0 ) ) ( * Nl4arg121 0 ) ) ( * Nl4arg131 0 ) ) ( * Nl4arg141 0 ) ) ) ) 0 ) ( = ( + ( * 1 lam4n7 ) ( * ( - 1 ) lam4n8 ) ( - ( + 0 ( * Nl4arg11 1 ) ) ) ) 0 ) ( = ( + ( * ( - 1 ) lam4n1 ) ( - ( + 0 ( * Nl4arg21 1 ) ) ) ) 0 ) ( = ( - ( + 0 ( * Nl4arg81 1 ) ) ) 0 ) ( = ( - ( + 0 ( * Nl4arg91 1 ) ) ) 0 ) ( = ( - ( + 0 ( * Nl4arg101 1 ) ) ) 0 ) ( = ( - ( + 0 ( * Nl4arg111 1 ) ) ) 0 ) ( = ( - ( + 0 ( * Nl4arg121 1 ) ) ) 0 ) ( = ( - ( + 0 ( * Nl4arg131 1 ) ) ) 0 ) ( = ( - ( + 0 ( * Nl4arg141 1 ) ) ) 0 ) ( = ( * ( - 1 ) lam4n6 ) 0 ) ( = ( * ( - 1 ) lam4n2 ) 0 ) ( = ( * ( - 1 ) lam4n3 ) 0 ) ( = ( * ( - 1 ) lam4n4 ) 0 ) ( = ( + ( * ( - 1 ) lam4n0 ) ( * ( - 1 ) lam4n7 ) ) 0 ) ( = ( + ( * ( - 1 ) lam4n5 ) ( - ( + 0 ( * Nl4arg31 1 ) ) ) ) 0 ) ) ( and ( >= lam5n0 0 ) ( >= lam5n1 0 ) ( >= lam5n2 0 ) ( >= lam5n3 0 ) ( >= lam5n4 0 ) ( >= lam5n5 0 ) ( >= lam5n6 0 ) ( >= lam5n7 0 ) ( >= lam5n8 0 ) ( > ( + ( * 1 lam5n0 ) ( * 2 lam5n5 ) ( * 4 lam5n6 ) ( * ( - 14 ) lam5n7 ) ( * 15 lam5n8 ) ( - 1 ( + ( + ( + ( + ( + ( + ( + ( + ( + ( + ( + ( + ( + ( + Nl4CT2 ( * Nl4arg12 0 ) ) ( * Nl4arg22 0 ) ) ( * Nl4arg32 0 ) ) ( * Nl4arg42 1 ) ) ( * Nl4arg52 16 ) ) ( * Nl4arg62 0 ) ) ( * Nl4arg72 12 ) ) ( * Nl4arg82 0 ) ) ( * Nl4arg92 0 ) ) ( * Nl4arg102 0 ) ) ( * Nl4arg112 0 ) ) ( * Nl4arg122 0 ) ) ( * Nl4arg132 0 ) ) ( * Nl4arg142 0 ) ) ) ) 0 ) ( = ( + ( * 1 lam5n7 ) ( * ( - 1 ) lam5n8 ) ( - ( + 0 ( * Nl4arg12 1 ) ) ) ) 0 ) ( = ( + ( * ( - 1 ) lam5n1 ) ( - ( + 0 ( * Nl4arg22 1 ) ) ) ) 0 ) ( = ( - ( + 0 ( * Nl4arg82 1 ) ) ) 0 ) ( = ( - ( + 0 ( * Nl4arg92 1 ) ) ) 0 ) ( = ( - ( + 0 ( * Nl4arg102 1 ) ) ) 0 ) ( = ( - ( + 0 ( * Nl4arg112 1 ) ) ) 0 ) ( = ( - ( + 0 ( * Nl4arg122 1 ) ) ) 0 ) ( = ( - ( + 0 ( * Nl4arg132 1 ) ) ) 0 ) ( = ( - ( + 0 ( * Nl4arg142 1 ) ) ) 0 ) ( = ( * ( - 1 ) lam5n6 ) 0 ) ( = ( * ( - 1 ) lam5n2 ) 0 ) ( = ( * ( - 1 ) lam5n3 ) 0 ) ( = ( * ( - 1 ) lam5n4 ) 0 ) ( = ( + ( * ( - 1 ) lam5n0 ) ( * ( - 1 ) lam5n7 ) ) 0 ) ( = ( + ( * ( - 1 ) lam5n5 ) ( - ( + 0 ( * Nl4arg32 1 ) ) ) ) 0 ) ) ( and ( >= lam6n0 0 ) ( >= lam6n1 0 ) ( >= lam6n2 0 ) ( >= lam6n3 0 ) ( >= lam6n4 0 ) ( >= lam6n5 0 ) ( >= lam6n6 0 ) ( >= lam6n7 0 ) ( >= lam6n8 0 ) ( > ( + ( * 1 lam6n0 ) ( * 2 lam6n5 ) ( * 4 lam6n6 ) ( * ( - 14 ) lam6n7 ) ( * 15 lam6n8 ) ( - 1 ( + ( + ( + ( + ( + ( + ( + ( + ( + ( + ( + ( + ( + ( + Nl4CT3 ( * Nl4arg13 0 ) ) ( * Nl4arg23 0 ) ) ( * Nl4arg33 0 ) ) ( * Nl4arg43 1 ) ) ( * Nl4arg53 16 ) ) ( * Nl4arg63 0 ) ) ( * Nl4arg73 12 ) ) ( * Nl4arg83 0 ) ) ( * Nl4arg93 0 ) ) ( * Nl4arg103 0 ) ) ( * Nl4arg113 0 ) ) ( * Nl4arg123 0 ) ) ( * Nl4arg133 0 ) ) ( * Nl4arg143 0 ) ) ) ) 0 ) ( = ( + ( * 1 lam6n7 ) ( * ( - 1 ) lam6n8 ) ( - ( + 0 ( * Nl4arg13 1 ) ) ) ) 0 ) ( = ( + ( * ( - 1 ) lam6n1 ) ( - ( + 0 ( * Nl4arg23 1 ) ) ) ) 0 ) ( = ( - ( + 0 ( * Nl4arg83 1 ) ) ) 0 ) ( = ( - ( + 0 ( * Nl4arg93 1 ) ) ) 0 ) ( = ( - ( + 0 ( * Nl4arg103 1 ) ) ) 0 ) ( = ( - ( + 0 ( * Nl4arg113 1 ) ) ) 0 ) ( = ( - ( + 0 ( * Nl4arg123 1 ) ) ) 0 ) ( = ( - ( + 0 ( * Nl4arg133 1 ) ) ) 0 ) ( = ( - ( + 0 ( * Nl4arg143 1 ) ) ) 0 ) ( = ( * ( - 1 ) lam6n6 ) 0 ) ( = ( * ( - 1 ) lam6n2 ) 0 ) ( = ( * ( - 1 ) lam6n3 ) 0 ) ( = ( * ( - 1 ) lam6n4 ) 0 ) ( = ( + ( * ( - 1 ) lam6n0 ) ( * ( - 1 ) lam6n7 ) ) 0 ) ( = ( + ( * ( - 1 ) lam6n5 ) ( - ( + 0 ( * Nl4arg33 1 ) ) ) ) 0 ) ) ) ( and ( >= lam0n0 0 ) ( >= lam0n1 0 ) ( >= lam0n2 0 ) ( >= lam0n3 0 ) ( >= lam0n4 0 ) ( >= lam0n5 0 ) ( >= lam0n6 0 ) ( >= lam0n7 0 ) ( >= lam0n8 0 ) ( >= lam0n9 0 ) ( >= lam0n10 0 ) ( >= lam0n11 0 ) ( >= lam0n12 0 ) ( >= lam0n13 0 ) ( >= lam0n14 0 ) ( >= lam0n15 0 ) ( >= lam0n16 0 ) ( >= lam0n17 0 ) ( > ( + ( * 1 lam0n0 ) ( * 3 lam0n7 ) ( * 3 lam0n8 ) ( * 2 lam0n9 ) ( * 2 lam0n10 ) ( * 2 lam0n11 ) ( * 4 lam0n12 ) ( * 4 lam0n13 ) ( * 4 lam0n14 ) ( * Nl4CT1 lam0n15 ) ( * Nl4CT2 lam0n16 ) ( * Nl4CT3 lam0n17 ) ( - 1 ) ) 0 ) ( = ( + ( * ( - 1 ) lam0n7 ) ( * ( - 1 ) lam0n8 ) ( * ( - 1 ) lam0n12 ) ( * Nl4arg11 lam0n15 ) ( * Nl4arg12 lam0n16 ) ( * Nl4arg13 lam0n17 ) ) 0 ) ( = ( + ( * ( - 1 ) lam0n0 ) ( * Nl4arg21 lam0n15 ) ( * Nl4arg22 lam0n16 ) ( * Nl4arg23 lam0n17 ) ) 0 ) ( = ( + ( * ( - 1 ) lam0n9 ) ( * ( - 1 ) lam0n10 ) ( * Nl4arg31 lam0n15 ) ( * Nl4arg32 lam0n16 ) ( * Nl4arg33 lam0n17 ) ) 0 ) ( = ( + ( * ( - 1 ) lam0n1 ) ( * 1 lam0n10 ) ( * Nl4arg41 lam0n15 ) ( * Nl4arg42 lam0n16 ) ( * Nl4arg43 lam0n17 ) ) 0 ) ( = ( + ( * ( - 1 ) lam0n11 ) ( * Nl4arg51 lam0n15 ) ( * Nl4arg52 lam0n16 ) ( * Nl4arg53 lam0n17 ) ) 0 ) ( = ( + ( * 1 lam0n7 ) ( * Nl4arg61 lam0n15 ) ( * Nl4arg62 lam0n16 ) ( * Nl4arg63 lam0n17 ) ) 0 ) ( = ( + ( * 1 lam0n8 ) ( * Nl4arg71 lam0n15 ) ( * Nl4arg72 lam0n16 ) ( * Nl4arg73 lam0n17 ) ) 0 ) ( = ( + ( * Nl4arg81 lam0n15 ) ( * Nl4arg82 lam0n16 ) ( * Nl4arg83 lam0n17 ) ) 0 ) ( = ( + ( * Nl4arg91 lam0n15 ) ( * Nl4arg92 lam0n16 ) ( * Nl4arg93 lam0n17 ) ) 0 ) ( = ( + ( * Nl4arg101 lam0n15 ) ( * Nl4arg102 lam0n16 ) ( * Nl4arg103 lam0n17 ) ) 0 ) ( = ( + ( * Nl4arg111 lam0n15 ) ( * Nl4arg112 lam0n16 ) ( * Nl4arg113 lam0n17 ) ) 0 ) ( = ( + ( * Nl4arg121 lam0n15 ) ( * Nl4arg122 lam0n16 ) ( * Nl4arg123 lam0n17 ) ) 0 ) ( = ( + ( * Nl4arg131 lam0n15 ) ( * Nl4arg132 lam0n16 ) ( * Nl4arg133 lam0n17 ) ) 0 ) ( = ( + ( * Nl4arg141 lam0n15 ) ( * Nl4arg142 lam0n16 ) ( * Nl4arg143 lam0n17 ) ) 0 ) ( = ( * ( - 1 ) lam0n13 ) 0 ) ( = ( * ( - 1 ) lam0n2 ) 0 ) ( = ( * ( - 1 ) lam0n3 ) 0 ) ( = ( * ( - 1 ) lam0n14 ) 0 ) ( = ( * ( - 1 ) lam0n4 ) 0 ) ( = ( * ( - 1 ) lam0n5 ) 0 ) ( = ( * ( - 1 ) lam0n6 ) 0 ) ) ) ))
(check-sat)
(exit)
